letting n_nurses=25
letting n_days=7
letting n_shift_types=4
letting max_covers=8
letting t_covers=61
letting covers=[5,4,2,0,8,4,3,0,1,5,3,0,4,5,2,0,6,5,3,0,0,0,0,0,1,0,0,0]
letting prefes=[2,4,4,2,1,1,1,1,2,1,1,2,2,4,4,2,1,1,1,1,2,1,1,2,2,1,1,2,2,2,2,2,4,1,4,4,2,1,1,2,2,2,2,2,4,1,4,4,2,1,1,2,2,1,1,2,2,3,3,2,4,4,4,4,2,1,1,2,2,3,3,2,4,4,4,4,2,1,1,2,2,1,1,2,2,1,1,2,1,1,1,1,2,1,1,2,2,1,1,2,1,1,1,1,2,1,1,2,2,1,1,2,1,1,1,1,4,4,4,4,2,4,4,2,1,1,1,1,4,4,4,4,2,4,4,2,2,4,4,2,2,1,1,2,4,1,4,4,1,1,1,1,2,1,1,2,4,1,4,4,1,1,1,1,1,1,1,1,2,1,1,2,4,1,4,4,2,4,4,2,2,1,1,2,4,1,4,4,2,4,4,2,2,4,4,2,2,2,2,2,1,1,4,4,2,1,1,2,2,2,2,2,1,1,4,4,2,1,1,2,2,1,1,2,2,1,1,2,4,1,4,4,2,1,1,2,2,1,1,2,4,1,4,4,2,1,1,2,2,1,1,2,2,1,1,2,4,1,4,4,2,1,1,2,2,1,1,2,4,1,4,4,2,1,1,2,2,1,1,2,2,1,1,2,1,4,4,4,2,4,4,2,2,1,1,2,1,4,4,4,2,4,4,2,2,4,4,2,2,1,1,2,1,1,4,4,2,1,1,2,2,1,1,2,1,1,4,4,2,1,1,2,2,1,1,2,2,1,1,2,4,1,1,1,2,1,1,2,2,1,1,2,4,1,1,1,2,1,1,2,2,1,1,2,2,1,1,2,4,1,4,4,2,4,4,2,2,1,1,2,4,1,4,4,2,4,4,2,2,4,4,2,1,1,1,1,4,1,1,1,2,1,1,2,1,1,1,1,4,1,1,1,2,1,1,2,2,1,1,2,1,1,1,1,4,4,4,4,2,1,1,2,1,1,1,1,4,4,4,4,2,1,1,2,2,1,1,2,2,1,1,2,4,1,4,4,1,1,1,1,2,1,1,2,4,1,4,4,1,1,1,1,1,1,1,1,1,4,4,1,4,1,4,4,1,1,1,1,1,4,4,1,4,1,4,4,1,1,1,1,1,1,1,1,2,1,1,2,4,1,4,4,2,1,1,2,2,1,1,2,4,1,4,4,2,1,1,2,2,1,1,2,2,1,1,2,4,1,4,4,2,4,4,2,2,1,1,2,4,1,4,4,2,4,4,2,2,4,4,2,2,1,1,2,4,4,4,4,2,1,1,2,2,1,1,2,4,4,4,4,2,1,1,2,2,1,1,2,2,1,1,2,4,1,1,1,1,1,1,1,2,1,1,2,4,1,1,1,1,1,1,1,1,1,1,1,1,1,1,1,4,1,4,4,1,1,1,1,1,1,1,1,4,1,4,4,1,1,1,1,1,1,1,1,2,1,1,2,4,1,4,4,2,1,1,2,2,1,1,2,4,1,4,4,2,1,1,2,2,1,1,2,2,1,1,2,4,1,4,4,2,1,1,2,2,1,1,2,4,1,4,4,2,1,1,2,2,1,1,2]
letting ub =  239
